(set-info :smt-lib-version 2.6)
(set-logic QF_LIA)
(set-info :source |
Alberto Griggio

|)
(set-info :category "random")
(set-info :status sat)
(declare-fun x0 () Int)
(declare-fun x1 () Int)
(declare-fun x2 () Int)
(declare-fun x3 () Int)
(declare-fun x4 () Int)
(declare-fun x5 () Int)
(declare-fun x6 () Int)
(declare-fun x7 () Int)
(declare-fun x8 () Int)
(declare-fun x9 () Int)
(declare-fun x10 () Int)
(declare-fun x11 () Int)
(declare-fun x12 () Int)
(declare-fun x13 () Int)
(declare-fun x14 () Int)
(declare-fun x15 () Int)
(declare-fun x16 () Int)
(declare-fun x17 () Int)
(declare-fun x18 () Int)
(declare-fun x19 () Int)
(declare-fun x20 () Int)
(declare-fun x21 () Int)
(declare-fun x22 () Int)
(declare-fun x23 () Int)
(declare-fun x24 () Int)
(declare-fun x25 () Int)
(declare-fun x26 () Int)
(declare-fun x27 () Int)
(declare-fun x28 () Int)
(declare-fun x29 () Int)
(declare-fun x30 () Int)
(declare-fun x31 () Int)
(declare-fun x32 () Int)
(declare-fun x33 () Int)
(declare-fun x34 () Int)
(declare-fun x35 () Int)
(declare-fun x36 () Int)
(declare-fun x37 () Int)
(declare-fun x38 () Int)
(declare-fun x39 () Int)
(declare-fun x40 () Int)
(declare-fun x41 () Int)
(declare-fun x42 () Int)
(declare-fun x43 () Int)
(declare-fun x44 () Int)
(assert (let ((?v_120 (* 1 x35)) (?v_0 (* 0 x35)) (?v_25 (* 1 x29)) (?v_96 (* 0 x34)) (?v_28 (* 1 x33)) (?v_82 (* 1 x20)) (?v_7 (* 0 x12)) (?v_15 (* 0 x16)) (?v_24 (* 0 x4)) (?v_40 (* 1 x19)) (?v_89 (* 1 x18)) (?v_2 (* 1 x36)) (?v_78 (* 1 x41)) (?v_5 (* 0 x39)) (?v_53 (* 1 x40)) (?v_21 (* 0 x28)) (?v_13 (* 0 x29)) (?v_36 (* 1 x2)) (?v_32 (* 0 x21)) (?v_4 (* 0 x7)) (?v_42 (* 0 x30)) (?v_37 (* 1 x24)) (?v_10 (* 0 x14)) (?v_77 (* 1 x9)) (?v_9 (* 0 x11)) (?v_48 (* 0 x33)) (?v_12 (* 0 x8)) (?v_86 (* 1 x39)) (?v_29 (* 0 x1)) (?v_14 (* 0 x32)) (?v_129 (* 1 x32)) (?v_115 (* 1 x42)) (?v_16 (* 0 x43)) (?v_132 (* 1 x14)) (?v_67 (* 0 x42)) (?v_45 (* 0 x44)) (?v_30 (* 1 x31)) (?v_56 (* 1 x11)) (?v_66 (* 1 x3)) (?v_44 (* 0 x6)) (?v_118 (* 1 x21)) (?v_54 (* 1 x5)) (?v_68 (* 1 x27)) (?v_90 (* 0 x17)) (?v_84 (* 1 x8)) (?v_63 (* 1 x28)) (?v_60 (* 1 x37)) (?v_38 (* 0 x2)) (?v_85 (* 1 x6)) (?v_22 (* 0 x26)) (?v_106 (* 0 x18)) (?v_47 (* 1 x43)) (?v_65 (* 1 x44)) (?v_70 (* 1 x15)) (?v_105 (* 1 x17)) (?v_62 (* 1 x25)) (?v_117 (* 1 x10)) (?v_51 (* 0 x23)) (?v_1 (* 0 x22)) (?v_64 (* 0 x13)) (?v_43 (* 0 x41)) (?v_57 (* 0 x0)) (?v_74 (* 1 x7)) (?v_80 (* 1 x16)) (?v_79 (* 1 x34)) (?v_55 (* 0 x15)) (?v_102 (* 0 x31)) (?v_101 (* 1 x23)) (?v_71 (* 0 x37)) (?v_72 (* 0 x24)) (?v_73 (* 0 x9)) (?v_46 (* 0 x25)) (?v_81 (* 1 x0)) (?v_93 (* 0 x5)) (?v_108 (* 1 x22)) (?v_99 (* 1 x4)) (?v_109 (* 1 x12)) (?v_113 (* 1 x26)) (?v_97 (* 1 x38)) (?v_100 (* 1 x1)) (?v_27 (* 0 x36)) (?v_88 (* 0 x10)) (?v_20 (* 0 x38)) (?v_123 (* 1 x30)) (?v_41 (* 0 x3)) (?v_18 (* 0 x20)) (?v_112 (* 0 x40)) (?v_91 (* 0 x19)) (?v_35 (* 0 x27)) (?v_3 (* (- 1) x31)) (?v_116 (* (- 1) x5)) (?v_31 (* (- 1) x9)) (?v_26 (* (- 1) x20)) (?v_61 (* (- 1) x43)) (?v_58 (* (- 1) x30)) (?v_6 (* (- 1) x4)) (?v_75 (* (- 1) x39)) (?v_11 (* (- 1) x1)) (?v_8 (* (- 1) x32)) (?v_104 (* (- 1) x6)) (?v_23 (* (- 1) x40)) (?v_127 (* (- 1) x19)) (?v_17 (* (- 1) x8)) (?v_19 (* (- 1) x11)) (?v_76 (* (- 1) x34)) (?v_110 (* (- 1) x0)) (?v_87 (* (- 1) x29)) (?v_49 (* (- 1) x26)) (?v_69 (* (- 1) x27)) (?v_34 (* (- 1) x37)) (?v_59 (* (- 1) x38)) (?v_94 (* (- 1) x3)) (?v_83 (* (- 1) x12)) (?v_33 (* (- 1) x35)) (?v_39 (* (- 1) x24)) (?v_50 (* (- 1) x36)) (?v_52 (* (- 1) x17)) (?v_98 (* (- 1) x2)) (?v_125 (* (- 1) x25)) (?v_107 (* (- 1) x23)) (?v_103 (* (- 1) x42)) (?v_92 (* (- 1) x21)) (?v_122 (* (- 1) x41)) (?v_95 (* (- 1) x33)) (?v_114 (* (- 1) x14)) (?v_126 (* (- 1) x44)) (?v_119 (* (- 1) x13)) (?v_131 (* (- 1) x22)) (?v_111 (* (- 1) x16)) (?v_128 (* (- 1) x7)) (?v_133 (* (- 1) x28)) (?v_121 (* (- 1) x10)) (?v_124 (* (- 1) x15)) (?v_130 (* (- 1) x18))) (and (<= (+ ?v_120 ?v_0 ?v_25 ?v_3 ?v_96 ?v_116 ?v_31 ?v_26 ?v_57 ?v_28 ?v_82 ?v_61 ?v_58 ?v_7 ?v_6 ?v_75 ?v_15 ?v_1 ?v_24 ?v_11 ?v_40 ?v_38 ?v_89 ?v_2 ?v_78 ?v_5 ?v_43 ?v_53 ?v_21 ?v_13 ?v_36 ?v_14 ?v_32 ?v_16 ?v_4 ?v_42 ?v_0 ?v_37 ?v_8 ?v_104 ?v_20 ?v_10 ?v_1 ?v_41 ?v_18) 1) (<= (+ ?v_2 ?v_77 ?v_3 ?v_9 ?v_4 ?v_48 ?v_12 ?v_86 ?v_27 ?v_5 ?v_6 ?v_7 ?v_8 ?v_0 ?v_9 ?v_10 ?v_23 ?v_127 ?v_29 ?v_11 ?v_6 ?v_12 ?v_13 ?v_14 ?v_4 ?v_17 ?v_19 ?v_129 ?v_115 ?v_15 ?v_22 ?v_14 ?v_16 ?v_17 ?v_18 ?v_19 ?v_132 ?v_20 ?v_14 ?v_5 ?v_12 ?v_76 ?v_110 ?v_87 ?v_21) 1) (<= (+ ?v_67 ?v_1 ?v_22 ?v_73 ?v_49 ?v_13 ?v_23 ?v_45 ?v_69 ?v_24 ?v_21 ?v_25 ?v_34 ?v_26 ?v_59 ?v_0 ?v_16 ?v_30 ?v_27 ?v_56 ?v_94 ?v_0 ?v_66 ?v_44 ?v_51 ?v_28 ?v_46 ?v_83 ?v_15 ?v_33 ?v_29 ?v_30 ?v_118 ?v_9 ?v_31 ?v_54 ?v_32 ?v_13 ?v_35 ?v_33 ?v_68 ?v_39 ?v_90 ?v_34 ?v_35) 0) (<= (+ ?v_84 ?v_36 ?v_37 ?v_63 ?v_3 ?v_60 ?v_50 ?v_38 ?v_55 ?v_39 ?v_52 ?v_40 ?v_9 ?v_41 ?v_27 ?v_42 ?v_17 ?v_85 ?v_33 ?v_10 ?v_98 ?v_22 ?v_125 ?v_43 ?v_7 ?v_106 ?v_44 ?v_28 ?v_12 ?v_36 ?v_43 ?v_47 ?v_40 ?v_45 ?v_24 ?v_0 ?v_5 ?v_65 ?v_107 ?v_33 ?v_70 ?v_46 ?v_105 ?v_62 ?v_21) 1) (<= (+ ?v_47 ?v_117 ?v_10 ?v_48 ?v_24 ?v_49 ?v_50 ?v_32 ?v_51 ?v_1 ?v_3 ?v_52 ?v_32 ?v_64 ?v_53 ?v_12 ?v_7 ?v_35 ?v_10 ?v_21 ?v_15 ?v_39 ?v_54 ?v_50 ?v_55 ?v_56 ?v_43 ?v_29 ?v_57 ?v_103 ?v_21 ?v_51 ?v_2 ?v_58 ?v_74 ?v_80 ?v_59 ?v_92 ?v_60 ?v_40 ?v_61 ?v_41 ?v_12 ?v_5 ?v_0) 1) (<= (+ ?v_62 ?v_15 ?v_63 ?v_42 ?v_91 ?v_64 ?v_79 ?v_65 ?v_66 ?v_55 ?v_122 ?v_65 ?v_18 ?v_21 ?v_32 ?v_95 ?v_45 ?v_16 ?v_102 ?v_64 ?v_114 ?v_40 ?v_56 ?v_63 ?v_44 ?v_48 ?v_101 ?v_67 ?v_49 ?v_39 ?v_19 ?v_68 ?v_2 ?v_69 ?v_71 ?v_67 ?v_70 ?v_71 ?v_72 ?v_72 ?v_29 ?v_73 ?v_41 ?v_41 ?v_29) 1) (<= (+ ?v_74 ?v_9 ?v_14 ?v_26 ?v_75 ?v_44 ?v_57 ?v_46 ?v_76 ?v_14 ?v_77 ?v_38 ?v_81 ?v_47 ?v_10 ?v_21 ?v_42 ?v_78 ?v_7 ?v_79 ?v_93 ?v_75 ?v_4 ?v_52 ?v_80 ?v_81 ?v_63 ?v_1 ?v_108 ?v_16 ?v_82 ?v_99 ?v_26 ?v_109 ?v_83 ?v_38 ?v_84 ?v_72 ?v_71 ?v_85 ?v_86 ?v_46 ?v_88 ?v_86 ?v_87) 0) (<= (+ ?v_113 ?v_38 ?v_32 ?v_7 ?v_88 ?v_18 ?v_71 ?v_2 ?v_13 ?v_97 ?v_89 ?v_65 ?v_100 ?v_90 ?v_126 ?v_91 ?v_71 ?v_6 ?v_12 ?v_59 ?v_16 ?v_81 ?v_52 ?v_41 ?v_90 ?v_10 ?v_92 ?v_29 ?v_73 ?v_27 ?v_13 ?v_63 ?v_27 ?v_27 ?v_8 ?v_93 ?v_85 ?v_94 ?v_95 ?v_96 ?v_85 ?v_74 ?v_43 ?v_32 ?v_80) 0) (<= (+ ?v_44 ?v_76 ?v_43 ?v_52 ?v_97 ?v_119 ?v_11 ?v_64 ?v_64 ?v_96 ?v_34 ?v_93 ?v_30 ?v_98 ?v_71 ?v_97 ?v_38 ?v_99 ?v_78 ?v_62 ?v_71 ?v_31 ?v_48 ?v_92 ?v_100 ?v_59 ?v_67 ?v_90 ?v_33 ?v_88 ?v_101 ?v_60 ?v_48 ?v_63 ?v_95 ?v_66 ?v_0 ?v_17 ?v_68 ?v_32 ?v_37 ?v_87 ?v_66 ?v_25 ?v_93) 0) (<= (+ ?v_102 ?v_14 ?v_103 ?v_56 ?v_73 ?v_42 ?v_16 ?v_20 ?v_33 ?v_16 ?v_88 ?v_86 ?v_41 ?v_13 ?v_104 ?v_17 ?v_1 ?v_43 ?v_40 ?v_96 ?v_20 ?v_43 ?v_57 ?v_8 ?v_60 ?v_14 ?v_105 ?v_5 ?v_20 ?v_22 ?v_46 ?v_92 ?v_73 ?v_71 ?v_91 ?v_106 ?v_90 ?v_107 ?v_108 ?v_105 ?v_45 ?v_86 ?v_11 ?v_19 ?v_1) (- 1)) (<= (+ ?v_27 ?v_37 ?v_131 ?v_33 ?v_80 ?v_12 ?v_80 ?v_102 ?v_24 ?v_55 ?v_1 ?v_0 ?v_31 ?v_68 ?v_96 ?v_111 ?v_23 ?v_62 ?v_17 ?v_55 ?v_18 ?v_38 ?v_34 ?v_106 ?v_128 ?v_109 ?v_46 ?v_89 ?v_95 ?v_90 ?v_31 ?v_112 ?v_106 ?v_16 ?v_63 ?v_69 ?v_109 ?v_9 ?v_93 ?v_47 ?v_89 ?v_71 ?v_110 ?v_109 ?v_9) 0) (<= (+ ?v_40 ?v_84 ?v_123 ?v_43 ?v_89 ?v_32 ?v_26 ?v_10 ?v_55 ?v_45 ?v_111 ?v_101 ?v_111 ?v_44 ?v_88 ?v_13 ?v_25 ?v_76 ?v_103 ?v_34 ?v_29 ?v_47 ?v_112 ?v_78 ?v_12 ?v_41 ?v_113 ?v_62 ?v_22 ?v_48 ?v_86 ?v_14 ?v_64 ?v_40 ?v_17 ?v_16 ?v_9 ?v_27 ?v_96 ?v_13 ?v_18 ?v_59 ?v_12 ?v_45 ?v_52) (- 1)) (<= (+ ?v_60 ?v_114 ?v_57 ?v_81 ?v_7 ?v_75 ?v_96 ?v_45 ?v_21 ?v_20 ?v_46 ?v_60 ?v_38 ?v_115 ?v_90 ?v_91 ?v_0 ?v_14 ?v_2 ?v_9 ?v_114 ?v_83 ?v_53 ?v_47 ?v_109 ?v_32 ?v_15 ?v_114 ?v_83 ?v_27 ?v_102 ?v_0 ?v_42 ?v_19 ?v_51 ?v_100 ?v_72 ?v_47 ?v_82 ?v_35 ?v_7 ?v_77 ?v_15 ?v_63 ?v_7) 1) (<= (+ ?v_22 ?v_35 ?v_82 ?v_116 ?v_34 ?v_43 ?v_16 ?v_72 ?v_43 ?v_15 ?v_51 ?v_28 ?v_87 ?v_117 ?v_46 ?v_90 ?v_118 ?v_133 ?v_119 ?v_34 ?v_37 ?v_20 ?v_75 ?v_77 ?v_64 ?v_22 ?v_89 ?v_47 ?v_121 ?v_18 ?v_120 ?v_1 ?v_1 ?v_88 ?v_60 ?v_16 ?v_45 ?v_90 ?v_12 ?v_104 ?v_95 ?v_102 ?v_23 ?v_59 ?v_41) (- 1)) (<= (+ ?v_48 ?v_73 ?v_92 ?v_59 ?v_104 ?v_38 ?v_49 ?v_108 ?v_7 ?v_105 ?v_106 ?v_112 ?v_27 ?v_121 ?v_122 ?v_118 ?v_97 ?v_9 ?v_111 ?v_29 ?v_84 ?v_27 ?v_120 ?v_16 ?v_67 ?v_124 ?v_44 ?v_9 ?v_51 ?v_57 ?v_59 ?v_115 ?v_123 ?v_124 ?v_120 ?v_10 ?v_104 ?v_61 ?v_110 ?v_116 ?v_106 ?v_72 ?v_18 ?v_66 ?v_87) 1) (<= (+ ?v_5 ?v_64 ?v_124 ?v_50 ?v_106 ?v_1 ?v_11 ?v_33 ?v_14 ?v_67 ?v_96 ?v_21 ?v_50 ?v_16 ?v_43 ?v_71 ?v_123 ?v_88 ?v_14 ?v_73 ?v_5 ?v_81 ?v_75 ?v_55 ?v_123 ?v_7 ?v_20 ?v_71 ?v_40 ?v_74 ?v_40 ?v_122 ?v_99 ?v_69 ?v_99 ?v_61 ?v_36 ?v_51 ?v_97 ?v_121 ?v_69 ?v_113 ?v_117 ?v_88 ?v_102) (- 1)) (<= (+ ?v_57 ?v_101 ?v_49 ?v_24 ?v_9 ?v_98 ?v_70 ?v_108 ?v_101 ?v_125 ?v_112 ?v_90 ?v_110 ?v_10 ?v_15 ?v_75 ?v_113 ?v_23 ?v_40 ?v_7 ?v_123 ?v_46 ?v_46 ?v_14 ?v_117 ?v_86 ?v_121 ?v_42 ?v_92 ?v_83 ?v_33 ?v_83 ?v_104 ?v_24 ?v_62 ?v_0 ?v_27 ?v_93 ?v_88 ?v_27 ?v_39 ?v_12 ?v_83 ?v_45 ?v_21) (- 1)) (<= (+ ?v_57 ?v_4 ?v_64 ?v_2 ?v_93 ?v_33 ?v_32 ?v_6 ?v_38 ?v_20 ?v_51 ?v_82 ?v_10 ?v_113 ?v_102 ?v_106 ?v_81 ?v_21 ?v_15 ?v_43 ?v_88 ?v_103 ?v_10 ?v_63 ?v_67 ?v_51 ?v_47 ?v_7 ?v_23 ?v_21 ?v_29 ?v_19 ?v_108 ?v_74 ?v_6 ?v_105 ?v_2 ?v_84 ?v_113 ?v_53 ?v_64 ?v_104 ?v_77 ?v_118 ?v_12) (- 1)) (<= (+ ?v_79 ?v_92 ?v_12 ?v_46 ?v_1 ?v_80 ?v_93 ?v_43 ?v_102 ?v_9 ?v_52 ?v_79 ?v_93 ?v_117 ?v_126 ?v_119 ?v_90 ?v_53 ?v_86 ?v_107 ?v_19 ?v_97 ?v_27 ?v_125 ?v_10 ?v_52 ?v_5 ?v_124 ?v_66 ?v_127 ?v_7 ?v_15 ?v_74 ?v_36 ?v_72 ?v_10 ?v_14 ?v_29 ?v_74 ?v_57 ?v_122 ?v_128 ?v_76 ?v_129 ?v_62) 0) (<= (+ ?v_7 ?v_27 ?v_6 ?v_102 ?v_89 ?v_58 ?v_44 ?v_27 ?v_90 ?v_36 ?v_10 ?v_88 ?v_93 ?v_73 ?v_94 ?v_126 ?v_82 ?v_21 ?v_113 ?v_57 ?v_31 ?v_112 ?v_99 (* 1 x13) ?v_10 ?v_89 ?v_8 ?v_81 ?v_17 ?v_79 ?v_84 ?v_86 ?v_79 ?v_45 ?v_88 ?v_12 ?v_130 ?v_128 ?v_40 ?v_48 ?v_110 ?v_57 ?v_67 ?v_78 ?v_114) 0) (<= (+ ?v_97 ?v_72 ?v_103 ?v_78 ?v_108 ?v_11 ?v_26 ?v_44 ?v_88 ?v_15 ?v_115 ?v_13 ?v_123 ?v_1 ?v_8 ?v_86 ?v_33 ?v_130 ?v_75 ?v_46 ?v_101 ?v_83 ?v_85 ?v_106 ?v_16 ?v_65 ?v_35 ?v_78 ?v_129 ?v_26 ?v_114 ?v_131 ?v_51 ?v_74 ?v_70 ?v_110 ?v_48 ?v_40 ?v_98 ?v_100 ?v_102 ?v_104 ?v_29 ?v_12 ?v_122) 0) (<= (+ ?v_91 ?v_97 ?v_85 ?v_26 ?v_15 ?v_105 ?v_24 ?v_92 ?v_93 ?v_50 ?v_126 ?v_93 ?v_91 ?v_114 ?v_3 ?v_95 ?v_41 ?v_106 ?v_48 ?v_48 ?v_105 ?v_18 ?v_132 ?v_117 ?v_31 ?v_78 ?v_58 ?v_87 ?v_95 ?v_10 ?v_21 ?v_89 ?v_105 ?v_61 ?v_10 ?v_117 ?v_16 ?v_86 ?v_114 ?v_14 ?v_102 ?v_125 ?v_40 ?v_122 ?v_10) 0) (<= (+ ?v_5 ?v_65 ?v_83 ?v_82 ?v_56 ?v_9 ?v_20 ?v_130 ?v_82 ?v_29 ?v_80 ?v_116 ?v_54 ?v_94 ?v_131 ?v_16 ?v_88 ?v_42 ?v_117 ?v_130 ?v_130 ?v_108 ?v_91 ?v_13 ?v_86 ?v_16 ?v_32 ?v_47 ?v_88 ?v_3 ?v_95 ?v_108 ?v_45 ?v_32 ?v_102 ?v_43 ?v_52 ?v_19 ?v_50 ?v_133 ?v_78 ?v_8 ?v_1 ?v_32 ?v_35) 1) (<= (+ ?v_123 ?v_16 ?v_121 ?v_42 ?v_23 ?v_56 ?v_40 ?v_20 ?v_45 ?v_17 ?v_89 ?v_44 ?v_1 ?v_3 ?v_64 ?v_118 ?v_49 ?v_35 ?v_124 ?v_92 ?v_112 ?v_82 ?v_54 ?v_50 ?v_1 ?v_112 ?v_94 ?v_111 ?v_51 ?v_12 ?v_111 ?v_39 ?v_29 ?v_48 ?v_133 ?v_92 ?v_87 ?v_43 ?v_50 ?v_35 ?v_1 ?v_100 ?v_52 ?v_12 ?v_44) 1) (<= (+ ?v_63 ?v_36 ?v_100 ?v_0 ?v_23 ?v_64 ?v_62 ?v_13 ?v_62 ?v_112 ?v_49 ?v_59 ?v_77 ?v_100 ?v_0 ?v_86 ?v_16 ?v_9 ?v_114 ?v_99 ?v_66 ?v_23 ?v_82 ?v_57 ?v_5 ?v_3 ?v_118 ?v_67 ?v_43 ?v_77 ?v_64 ?v_4 ?v_108 ?v_126 ?v_24 ?v_74 ?v_111 ?v_101 ?v_10 ?v_132 ?v_52 ?v_26 ?v_111 ?v_1 ?v_102) (- 1)))))
(check-sat)
(exit)
